;; Preprocessed for Astral solver
(set-info :status sat)
;; variables
(declare-const x0 Loc)
(declare-const x1 Loc)
(declare-const x2 Loc)
(declare-const x3 Loc)
(declare-const x4 Loc)
(declare-const x5 Loc)
(declare-const x6 Loc)
(declare-const x7 Loc)
(declare-const x8 Loc)
(declare-const x9 Loc)
(declare-const x10 Loc)
(declare-const x11 Loc)
(declare-const x12 Loc)
(declare-const x13 Loc)
(declare-const x14 Loc)
(declare-const x15 Loc)
(declare-const x16 Loc)
(declare-const x17 Loc)
(declare-const x18 Loc)
(declare-const x19 Loc)
(declare-const x20 Loc)
(declare-const x21 Loc)
(declare-const x22 Loc)

(assert 
		(sep 
			(= nil nil)
		(sep 
			(pto x5 x7)
			(pto x17 x3)
			(pto x13 x10)
			(pto x15 x2)
			(ls x12 x8 )
			(pto x7 x4)
			(pto x6 x3)
			(pto x16 x1)
			(pto x8 x6)
			(pto x1 x4)
			(ls x11 x5 )
			(pto x2 x12)
			(ls x14 x17 )
			(pto x10 x18)
			(pto x4 x11)
			(pto x3 x7)
			(ls x9 x6 )
			(pto x18 x5)
		)

		)

)

(assert (not 
		(sep 
			(ls x13 x10 )
			(ls x11 x5 )
			(ls x14 x17 )
			(ls x17 x3 )
			(ls x10 x18 )
			(ls x16 x1 )
			(ls x15 x6 )
			(ls x1 x4 )
			(ls x9 x7 )
			(ls x18 x11 )
		)

))

(check-sat)
